
List of user-set options:

                                    Name   Value                used
                           compl_inf_tol = 1                     yes
                         constr_viol_tol = 1                     yes
                            dual_inf_tol = 1000                  yes
                           linear_solver = ma97                  yes
                              ma86_small = 1e-30                  no
                                  ma86_u = 0.0001                 no
                              ma97_order = best                  yes
                              ma97_small = 1e-30                 yes
                            ma97_switch1 = at_start              yes
                            ma97_switch2 = od_hd_reuse           yes
                                  ma97_u = 1e-06                 yes
                               ma97_umax = 0.5                   yes
                                max_iter = 1000                  yes
                    max_refinement_steps = 20                    yes
                    min_refinement_steps = 5                     yes
                                 mu_init = 1e-06                 yes
           mu_superlinear_decrease_power = 1.25                  yes
                   nlp_scaling_min_value = 1e-08                 yes
                        option_file_name = Preset_Case:_731_NCP.opt  yes
                             output_file = ./tmp/Preset_Case:_731_NCP.output  yes
                      print_user_options = yes                   yes
        required_infeasibility_reduction = 1                      no
                                     tol = 1e-08                 yes
                   warm_start_bound_frac = 1e-20                 yes
                   warm_start_bound_push = 1e-20                 yes
                   warm_start_init_point = yes                   yes
              warm_start_mult_bound_push = 1e-20                 yes
                warm_start_mult_init_max = 1e+40                 yes
             warm_start_slack_bound_frac = 1e-20                 yes
             warm_start_slack_bound_push = 1e-20                 yes

******************************************************************************
This program contains Ipopt, a library for large-scale nonlinear optimization.
 Ipopt is released as open source code under the Eclipse Public License (EPL).
         For more information visit http://projects.coin-or.org/Ipopt
******************************************************************************

This is Ipopt version 3.12.10, running with linear solver ma97.

Number of nonzeros in equality constraint Jacobian...:   117167
Number of nonzeros in inequality constraint Jacobian.:      213
Number of nonzeros in Lagrangian Hessian.............:    47513

Total number of variables............................:    29977
                     variables with only lower bounds:    11312
                variables with lower and upper bounds:    15135
                     variables with only upper bounds:        0
Total number of equality constraints.................:    29864
Total number of inequality constraints...............:       25
        inequality constraints with only lower bounds:        4
   inequality constraints with lower and upper bounds:        0
        inequality constraints with only upper bounds:       21

iter    objective    inf_pr   inf_du lg(mu)  ||d||  lg(rg) alpha_du alpha_pr  ls
   0 -1.1320904e-01 1.43e-01 2.00e+00  -6.0 0.00e+00    -  0.00e+00 0.00e+00   0
In iteration 0, 8 Slacks too small, adjusting variable bounds
   1 -1.1320904e-01 1.43e-01 4.52e+02  -6.0 1.07e+10    -  4.51e-14 5.45e-19h  1
   2 -1.1320906e-01 1.43e-01 1.07e+03  -6.0 4.03e+01    -  1.00e-02 9.38e-06f  1
   3 -1.1320924e-01 1.43e-01 1.04e+03  -6.0 3.61e+01    -  2.70e-02 5.98e-05h  1
   4 -1.1331240e-01 1.37e-01 1.21e+03  -6.0 3.71e+01    -  1.58e-02 4.10e-02h  1
   5 -1.1335425e-01 1.35e-01 1.21e+03  -6.0 3.82e+01    -  7.59e-04 1.76e-02h  1
   6 -1.1335531e-01 1.35e-01 1.21e+03  -6.0 3.83e+01    -  1.37e-01 4.87e-04f  1
   7 -1.1359923e-01 1.15e-01 9.90e+02  -6.0 4.40e+01    -  2.27e-01 1.43e-01f  1
   8 -1.1382007e-01 9.96e-02 8.27e+02  -6.0 4.79e+01    -  1.97e-01 1.37e-01h  1
   9 -1.1370445e-01 9.02e-02 2.16e+04  -6.0 5.06e+01    -  2.29e-01 9.47e-02h  4
iter    objective    inf_pr   inf_du lg(mu)  ||d||  lg(rg) alpha_du alpha_pr  ls
  10 -1.1349407e-01 9.39e-02 2.78e+04  -6.0 4.18e+01    -  2.55e-01 1.24e-01H  1
  11 -1.1333449e-01 1.12e-01 2.80e+04  -6.0 3.80e+01    -  2.35e-01 9.65e-02h  2
  12 -1.1316100e-01 1.20e-01 2.23e+04  -6.0 3.12e+01    -  3.35e-01 7.29e-02h  4
  13 -1.1287808e-01 1.27e-01 2.08e+04  -6.0 2.74e+01    -  6.90e-02 7.02e-02h  4
  14 -1.1226814e-01 1.54e-01 1.41e+04  -6.0 2.61e+01    -  2.02e-01 1.28e-01h  3
  15 -1.1166091e-01 1.57e-01 6.31e+03  -6.0 2.94e+01    -  1.92e-01 9.71e-02h  3
  16 -1.1139863e-01 1.55e-01 1.29e+04  -6.0 2.22e+01    -  3.59e-01 5.09e-02h  4
  17 -1.1120078e-01 1.52e-01 1.54e+04  -6.0 2.56e+01    -  9.31e-02 3.50e-02h  4
  18 -1.1110489e-01 1.52e-01 1.50e+04  -6.0 2.35e+01    -  4.96e-01 1.89e-02h  5
  19 -1.1102984e-01 1.54e-01 1.49e+04  -6.0 7.02e+01    -  1.63e-02 6.53e-03h  5
iter    objective    inf_pr   inf_du lg(mu)  ||d||  lg(rg) alpha_du alpha_pr  ls
  20 -1.1095326e-01 1.56e-01 1.48e+04  -6.0 5.90e+01    -  4.03e-01 7.86e-03h  5
  21 -1.1087515e-01 1.54e-01 1.40e+04  -6.0 1.05e+01  -4.0 5.29e-01 2.93e-02h  1
  22 -1.1081875e-01 1.57e-01 7.34e+03  -6.0 1.41e+01  -3.6 1.37e-01 3.40e-02h  5
  23 -1.1067634e-01 1.81e-01 9.21e+03  -6.0 2.02e+01  -4.1 1.88e-01 6.84e-02h  4
  24 -1.1065545e-01 1.81e-01 6.37e+02  -6.0 1.42e+01  -3.6 2.72e-01 1.93e-02h  4
  25 -1.1058070e-01 1.72e-01 1.31e+04  -6.0 2.45e+01  -4.1 4.75e-01 4.98e-02h  4
  26 -1.1058054e-01 1.72e-01 1.25e+04  -6.0 1.12e+01  -3.7 5.03e-02 2.22e-04h  1
  27 -1.1057127e-01 1.73e-01 4.85e+04  -6.0 1.12e+01  -3.3 4.27e-01 2.57e-02f  4
  28 -1.1055378e-01 1.74e-01 4.60e+04  -6.0 1.31e+01  -3.7 7.02e-02 1.85e-02h  6
  29 -1.1054556e-01 1.78e-01 8.97e+04  -6.0 1.18e+01  -3.3 6.70e-01 3.51e-02h  5
iter    objective    inf_pr   inf_du lg(mu)  ||d||  lg(rg) alpha_du alpha_pr  ls
  30 -1.1052965e-01 1.79e-01 8.08e+04  -6.0 1.31e+01  -3.8 1.08e-01 1.71e-02h  6
  31 -1.1052324e-01 1.83e-01 9.05e+04  -6.0 1.19e+01  -3.4 7.70e-01 3.67e-02h  5
  32 -1.1050704e-01 1.84e-01 7.84e+04  -6.0 1.37e+01  -3.8 1.41e-01 1.56e-02h  6
  33 -1.1050230e-01 1.87e-01 7.88e+04  -6.0 1.13e+01  -3.4 9.04e-01 3.43e-02h  5
  34 -1.1048107e-01 1.87e-01 6.65e+04  -6.0 2.15e+01  -3.9 1.51e-01 1.40e-02h  6
  35 -1.1047764e-01 1.88e-01 6.62e+04  -6.0 1.05e+01  -3.5 9.98e-01 3.20e-02h  5
  36 -1.1042369e-01 1.90e-01 5.49e+04  -6.0 3.54e+01  -3.9 1.34e-01 1.90e-02h  5
  37 -1.1038320e-01 1.62e+00 2.88e+04  -6.0 9.76e+00  -3.5 1.00e+00 4.71e-01w  1
  38 -1.0948992e-01 2.22e+00 1.12e+04  -6.0 9.75e+00  -4.0 8.59e-01 5.59e-01w  1
  39 -1.1030274e-01 1.82e+00 1.29e+04  -6.0 4.63e+00  -4.5 3.59e-01 1.82e-01w  1
iter    objective    inf_pr   inf_du lg(mu)  ||d||  lg(rg) alpha_du alpha_pr  ls
  40 -1.1042116e-01 1.91e-01 5.26e+04  -6.0 4.21e+01  -4.9 1.00e+00 2.94e-02h  4
  41 -1.1041906e-01 1.91e-01 4.62e+04  -6.0 9.87e+00  -3.6 3.54e-01 2.75e-02h  5
  42 -1.1042210e-01 1.99e-01 1.38e+05  -6.0 8.51e+00  -3.2 1.00e+00 5.96e-02h  4
  43 -1.1042169e-01 2.07e-01 8.21e+04  -6.0 9.86e+00  -3.7 4.69e-01 4.86e-02h  4
  44 -1.1042747e-01 2.09e-01 1.07e+05  -6.0 7.80e+00  -3.2 1.00e+00 5.14e-02h  4
  45 -1.1041775e-01 2.08e-01 2.26e+04  -6.0 1.06e+01  -3.7 8.13e-01 2.42e-02h  5
  46 -1.1040102e-01 2.09e-01 7.99e+04  -6.0 7.25e+00  -3.3 1.00e+00 5.65e-02h  4
  47 -1.1033468e-01 2.11e-01 1.19e+04  -6.0 9.58e+00  -3.8 1.00e+00 4.20e-02h  5
  48 -1.1027983e-01 2.12e-01 5.42e+04  -6.0 6.64e+00  -3.3 1.00e+00 6.53e-02h  4
  49 -1.1020528e-01 2.12e-01 2.52e+04  -6.0 8.49e+00  -3.8 1.00e+00 4.25e-02h  5
iter    objective    inf_pr   inf_du lg(mu)  ||d||  lg(rg) alpha_du alpha_pr  ls
  50 -1.0978319e-01 8.19e-01 1.66e+04  -6.0 6.09e+00  -3.4 1.00e+00 5.12e-01w  1
  51 -1.0978592e-01 8.74e-01 1.82e+04  -6.0 3.91e+00  -3.9 1.00e+00 7.01e-01w  1
  52 -1.1137132e-01 4.90e-01 8.44e+03  -6.0 2.41e+00  -4.3 4.03e-01 4.54e-01w  1
  53 -1.1015252e-01 2.10e-01 3.18e+04  -6.0 1.19e+01  -4.8 1.00e+00 6.40e-02h  3
  54 -1.1010477e-01 2.07e-01 9.30e+03  -6.0 6.13e+00  -3.5 1.00e+00 5.25e-02h  5
  55 -1.1005409e-01 2.05e-01 4.41e+04  -6.0 1.08e+01  -4.0 9.18e-01 3.04e-02h  5
  56 -1.1005389e-01 2.05e-01 2.11e+05  -6.0 4.54e+00  -2.6 6.54e-01 1.12e-03h  1
  57 -1.1000892e-01 2.03e-01 8.17e+04  -6.0 6.49e+00  -3.1 1.00e+00 8.51e-02h  4
  58 -1.0993931e-01 1.99e-01 2.30e+04  -6.0 6.22e+00  -3.6 1.00e+00 7.88e-02h  4
  59 -1.0988111e-01 2.00e-01 5.23e+04  -6.0 9.49e+00  -4.1 7.65e-01 5.60e-02h  4
iter    objective    inf_pr   inf_du lg(mu)  ||d||  lg(rg) alpha_du alpha_pr  ls
  60 -1.0987988e-01 1.96e-01 1.37e+05  -6.0 3.83e+00  -2.7 7.86e-01 2.79e-02h  1
  61 -1.0982199e-01 1.97e-01 1.81e+04  -6.0 5.44e+00  -3.2 1.00e+00 1.56e-01h  3
  62 -1.0976973e-01 1.95e-01 4.38e+04  -6.0 3.90e+00  -3.7 1.00e+00 1.65e-01h  3
  63 -1.1015645e-01 2.06e-01 3.86e+04  -6.0 3.83e+00  -4.2 1.00e+00 3.36e-01H  1
  64 -1.1024478e-01 2.04e-01 2.57e+04  -6.0 2.32e+01  -4.6 1.52e-01 6.77e-03h  1
  65 -1.1145337e-01 2.57e-01 6.25e+03  -6.0 2.75e+00  -4.2 4.35e-01 5.81e-01f  1
  66 -1.1151452e-01 2.63e-01 6.28e+03  -6.0 5.19e+02  -4.7 7.68e-05 1.77e-03h  1
  67 -1.1253443e-01 1.88e-01 4.52e+03  -6.0 5.21e+00  -4.3 2.17e-01 2.81e-01f  1
  68 -1.2123784e-01 4.58e-01 5.53e+02  -6.0 4.97e+00  -4.8 2.88e-01 8.68e-01h  1
  69 -1.2699990e-01 5.08e-01 5.14e+03  -6.0 3.14e+01  -5.2 1.83e-01 1.33e-01h  1
iter    objective    inf_pr   inf_du lg(mu)  ||d||  lg(rg) alpha_du alpha_pr  ls
  70 -1.3066931e-01 5.57e-01 9.57e+03  -6.0 3.02e+02  -5.7 3.13e-02 1.65e-02h  1
  71 -1.4364356e-01 9.37e-01 6.42e+03  -6.0 1.55e+01  -5.3 5.22e-01 4.12e-01h  1
  72 -1.4419088e-01 9.07e-01 5.69e+03  -6.0 4.92e+01  -5.8 4.04e-02 2.56e-02h  1
  73 -1.4437927e-01 8.78e-01 1.84e+04  -6.0 1.16e+01  -5.3 2.53e-01 3.08e-02h  1
  74 -1.5013408e-01 4.42e-01 1.33e+04  -6.0 6.05e+01  -5.8 2.13e-01 2.50e-01h  1
  75 -1.5146343e-01 1.01e+00 5.03e+03  -6.0 9.76e+00  -5.4 3.43e-01 5.51e-01h  1
  76 -1.5309096e-01 1.28e+00 4.34e+03  -6.0 2.30e+01  -5.9 1.76e-01 1.35e-01h  1
  77 -1.5606533e-01 1.67e+00 1.70e+03  -6.0 9.05e+00  -5.4 1.00e+00 6.00e-01h  1
  78 -1.5811108e-01 2.08e+00 1.07e+03  -6.0 3.98e+01  -5.9 2.51e-01 3.66e-01h  1
  79 -1.5941226e-01 3.57e+00 1.03e+03  -6.0 2.05e+02  -6.4 5.79e-02 3.25e-02h  1
iter    objective    inf_pr   inf_du lg(mu)  ||d||  lg(rg) alpha_du alpha_pr  ls
  80 -1.6118696e-01 4.76e+00 8.39e+02  -6.0 2.59e+01  -6.0 1.71e-01 1.88e-01h  1
  81 -1.6198706e-01 4.29e+00 7.77e+02  -6.0 7.58e+01  -6.4 1.00e+00 1.04e-01h  1
  82 -1.6901023e-01 1.48e+01 3.22e+02  -6.0 1.32e+02  -6.9 3.26e-01 5.87e-01h  1
  83 -1.7057251e-01 1.86e+01 3.17e+02  -6.0 4.49e+03  -7.4 1.99e-02 1.62e-02h  1
  84 -1.7387143e-01 1.98e+01 2.38e+02  -6.0 9.81e+01  -7.0 9.68e-01 2.60e-01h  1
  85 -1.7767070e-01 1.37e+01 4.41e+02  -6.0 4.15e+01  -6.5 3.12e-01 8.83e-01h  1
  86 -1.7953622e-01 8.36e+00 2.85e+02  -6.0 9.13e+01  -7.0 2.51e-01 3.54e-01h  1
  87 -1.8168265e-01 6.93e+00 2.37e+02  -6.0 1.70e+02  -7.5 8.64e-01 1.71e-01h  1
  88 -1.9444570e-01 2.24e+01 1.04e+02  -6.0 3.39e+02  -8.0 9.21e-03 7.46e-01h  1
  89 -1.9290871e-01 1.46e+01 1.95e+01  -6.0 1.44e+01  -5.7 2.97e-01 1.00e+00h  1
iter    objective    inf_pr   inf_du lg(mu)  ||d||  lg(rg) alpha_du alpha_pr  ls
  90 -1.9303164e-01 1.33e+01 1.02e+01  -6.0 1.47e+01  -6.2 4.87e-01 9.61e-02h  1
  91 -1.9325096e-01 2.48e-01 1.37e+01  -6.0 4.07e+00  -5.8 1.00e+00 1.00e+00h  1
  92 -1.9357624e-01 4.34e-01 6.41e+00  -6.0 2.62e+01  -6.3 3.11e-01 1.80e-01h  1
  93 -1.9413820e-01 2.06e-01 5.73e+00  -6.0 2.56e+01  -6.7 1.00e+00 5.41e-01h  1
  94 -1.9631384e-01 1.66e-01 1.30e+01  -6.0 6.43e+01  -7.2 1.00e+00 7.57e-01h  1
  95 -2.0178725e-01 6.99e-01 3.47e+01  -6.0 1.62e+02  -7.7 1.00e+00 1.00e+00h  1
  96 -2.0552990e-01 7.49e-01 1.67e+01  -6.0 4.34e+02  -8.2 1.00e+00 4.20e-01h  1
  97 -2.0696773e-01 4.55e-01 8.37e+00  -6.0 1.61e+02  -7.7 1.00e+00 5.69e-01h  1
  98 -2.0863842e-01 7.79e-01 9.12e+00  -6.0 8.69e+02  -8.2 7.46e-01 2.13e-01h  1
  99 -2.0960159e-01 1.15e+00 9.63e+00  -6.0 6.48e+02  -7.8 4.78e-01 2.77e-01h  1
iter    objective    inf_pr   inf_du lg(mu)  ||d||  lg(rg) alpha_du alpha_pr  ls
 100 -2.1234614e-01 1.10e+01 1.57e+01  -6.0 9.68e+02  -8.3 6.17e-01 8.01e-01h  1
 101 -2.1410312e-01 6.00e+00 4.15e+00  -6.0 5.63e+02  -7.9 3.82e-01 7.34e-01h  1
 102 -2.1764407e-01 4.90e+00 3.48e+00  -6.0 4.89e+02  -8.3 1.00e+00 1.00e+00h  1
 103 -2.1860984e-01 5.79e-01 2.57e-01  -6.0 1.75e+02  -7.9 1.00e+00 1.00e+00h  1
 104 -2.2160336e-01 4.02e+00 1.93e+01  -6.0 4.65e+02  -8.4 9.11e-01 9.64e-01h  1
 105 -2.2257711e-01 8.96e-01 1.41e+01  -6.0 1.53e+02  -8.0 1.00e+00 1.00e+00h  1
 106 -2.2307576e-01 3.44e-01 5.72e+00  -6.0 5.46e+01  -7.5 1.00e+00 1.00e+00h  1
 107 -2.2503765e-01 1.05e+01 5.42e+01  -6.0 2.80e+02  -8.0 1.00e+00 1.00e+00h  1
 108 -2.2700101e-01 2.94e+01 1.59e+02  -6.0 3.56e+02  -7.6 6.94e-02 5.08e-01h  1
 109 -2.2704922e-01 2.93e+01 1.61e+02  -6.0 2.27e+03  -8.1 1.35e-03 4.91e-03h  1
iter    objective    inf_pr   inf_du lg(mu)  ||d||  lg(rg) alpha_du alpha_pr  ls
 110 -2.2704787e-01 2.92e+01 1.67e+02  -6.0 7.45e+02  -5.8 9.15e-03 2.31e-03f  1
 111 -2.2706355e-01 2.90e+01 6.94e+01  -6.0 3.45e+01  -6.3 2.86e-01 7.53e-03h  1
 112 -2.2711265e-01 2.50e+01 5.96e+01  -6.0 3.49e+01  -6.8 1.17e-01 1.37e-01h  1
 113 -2.2670357e-01 1.94e+01 5.60e+01  -6.0 4.82e+01  -6.4 1.33e-01 3.70e-01h  1
 114 -2.2713110e-01 1.47e+01 8.61e+01  -6.0 3.51e+01  -6.8 1.00e+00 4.25e-01h  1
 115 -2.2703116e-01 7.07e-01 9.76e+00  -6.0 4.93e+01  -7.3 6.87e-01 1.00e+00h  1
 116 -2.2772742e-01 5.18e+00 4.20e+00  -6.0 1.16e+02  -7.8 7.35e-01 5.62e-01h  1
 117 -2.2802270e-01 4.95e+00 6.18e+00  -6.0 2.15e+02  -8.3 8.27e-01 1.70e-01h  1
 118 -2.3083958e-01 1.82e+00 9.30e+00  -6.0 6.98e+02  -8.7 1.00e+00 6.73e-01h  1
 119 -2.3281294e-01 2.59e+00 2.04e+01  -6.0 3.71e+02  -8.3 2.80e-01 1.00e+00h  1
iter    objective    inf_pr   inf_du lg(mu)  ||d||  lg(rg) alpha_du alpha_pr  ls
 120 -2.3303415e-01 1.57e+00 3.40e+01  -6.0 3.03e+01  -6.1 6.93e-03 9.30e-01h  1
 121 -2.3269421e-01 1.83e+00 2.70e+00  -6.0 3.39e+01  -6.6 1.00e+00 1.00e+00h  1
 122 -2.3295074e-01 2.68e-01 5.44e+00  -6.0 3.43e+00  -6.1 5.34e-01 1.00e+00h  1
 123 -2.3300276e-01 2.05e-01 1.01e+00  -6.0 1.16e+01  -6.6 9.50e-01 1.00e+00h  1
 124 -2.3308778e-01 5.49e-01 8.39e-01  -6.0 1.16e+01  -6.2 1.00e+00 1.00e+00h  1
 125 -2.3326300e-01 5.12e-01 1.44e+00  -6.0 6.90e+00  -5.8 9.52e-01 1.00e+00h  1
 126 -2.3328406e-01 5.02e-01 1.00e+01  -6.0 1.14e+01  -6.2 8.47e-01 5.96e-02h  1
 127 -2.3336085e-01 8.20e-01 9.84e+00  -6.0 1.42e+01  -6.7 6.62e-01 2.22e-01h  1
 128 -2.3359807e-01 3.13e-02 4.32e-01  -6.0 2.90e+01  -7.2 1.00e+00 1.00e+00h  1
 129 -2.3413903e-01 2.78e-01 5.45e+00  -6.0 1.02e+02  -7.7 1.00e+00 1.00e+00h  1
iter    objective    inf_pr   inf_du lg(mu)  ||d||  lg(rg) alpha_du alpha_pr  ls
 130 -2.3551457e-01 4.94e+00 1.23e+02  -6.0 5.88e+02  -8.1 5.13e-01 5.59e-01h  1
 131 -2.3617187e-01 8.28e+00 1.18e+02  -6.0 5.62e+02  -8.6 3.43e-03 1.47e-01h  1
 132 -2.3623487e-01 8.03e+00 7.65e+01  -6.0 3.69e+01  -6.4 1.88e-01 3.18e-02h  1
 133 -2.3623119e-01 7.95e+00 7.89e+01  -6.0 9.38e+01  -6.9 5.87e-05 9.41e-03h  1
 134 -2.3623460e-01 7.94e+00 6.98e+02  -6.0 9.04e+01  -7.3 5.53e-03 1.32e-03h  1
 135 -2.3626685e-01 7.51e+00 6.15e+02  -6.0 8.36e+01  -7.8 1.17e-01 5.45e-02h  1
 136 -2.3670720e-01 4.12e+00 5.01e+02  -6.0 1.89e+02  -8.3 1.39e-01 4.49e-01h  1
 137 -2.3723962e-01 3.23e+00 4.00e+02  -6.0 5.08e+02  -8.8 2.05e-01 2.14e-01h  1
 138 -2.3728276e-01 2.30e+00 1.14e+02  -6.0 7.93e+00  -6.5 5.58e-01 3.21e-01h  1
 139 -2.3728555e-01 2.28e+00 9.26e+01  -6.0 8.91e+00  -6.1 1.17e-01 1.10e-02h  1
iter    objective    inf_pr   inf_du lg(mu)  ||d||  lg(rg) alpha_du alpha_pr  ls
 140 -2.3703398e-01 2.54e+00 3.01e+02  -6.0 1.34e+01  -5.7 1.18e-02 1.00e+00H  1
 141 -2.3705223e-01 9.42e-04 5.66e+01  -6.0 7.34e-01  -5.3 6.38e-01 1.00e+00h  1
 142 -2.3711929e-01 5.66e-02 3.24e+00  -6.0 9.43e-01  -5.7 1.00e+00 9.03e-01h  1
 143 -2.3718502e-01 4.72e-01 4.72e-01  -6.0 3.37e+00  -6.2 1.00e+00 1.00e+00f  1
 144 -2.3733155e-01 2.51e+00 2.50e+00  -6.0 8.38e+00  -6.7 1.00e+00 9.71e-01h  1
 145 -2.3740593e-01 9.29e-01 1.81e+01  -6.0 2.93e+00  -6.3 1.00e+00 6.29e-01h  1
 146 -2.3748494e-01 1.09e-03 2.01e-01  -6.0 7.02e+00  -6.7 1.00e+00 1.00e+00h  1
 147 -2.3756672e-01 2.63e-03 3.07e+01  -6.0 8.88e+00  -6.3 1.21e-01 2.33e-01h  1
 148 -2.3771294e-01 2.13e-03 1.75e+02  -6.0 7.00e+00  -6.8 5.85e-01 1.00e+00h  1
 149 -2.3780917e-01 2.20e-03 3.55e+02  -6.0 2.13e+01  -7.3 7.72e-01 2.89e-01h  1
iter    objective    inf_pr   inf_du lg(mu)  ||d||  lg(rg) alpha_du alpha_pr  ls
 150 -2.3836267e-01 5.40e-02 1.06e+02  -6.0 6.07e+01  -7.8 4.34e-01 9.66e-01f  1
 151 -2.3885480e-01 8.30e-02 6.48e+03  -6.0 1.66e+02  -8.2 6.32e-02 4.51e-01f  1
 152 -2.3961640e-01 1.53e-01 4.61e+03  -6.0 4.25e+02  -8.7 3.15e-01 2.89e-01f  1
 153 -2.4408820e-01 7.58e+00 1.10e+03  -6.0 1.00e+03  -9.2 5.68e-01 7.54e-01h  1
 154 -2.4633519e-01 1.79e+01 9.16e+02  -6.0 4.49e+03  -9.7 2.25e-01 1.66e-01h  1
 155 -2.4924261e-01 4.15e+01 8.20e+02  -6.0 1.04e+04 -10.1 7.71e-02 1.04e-01h  1
 156 -2.5201592e-01 2.39e+01 1.47e+04  -6.0 2.14e+03 -10.6 1.14e-01 4.33e-01h  1
 157 -2.5335458e-01 2.67e+01 1.17e+04  -6.0 2.66e+03  -9.3 1.94e-01 2.20e-01h  1
 158 -2.5335084e-01 2.63e+01 1.19e+04  -6.0 1.84e+02  -5.2 3.06e-02 1.58e-02h  1
 159 -2.5334378e-01 2.57e+01 1.18e+04  -6.0 3.34e+00  -3.9 2.79e-02 2.03e-02h  1
iter    objective    inf_pr   inf_du lg(mu)  ||d||  lg(rg) alpha_du alpha_pr  ls
 160 -2.5320517e-01 2.25e+01 1.20e+04  -6.0 9.66e+00  -4.4 2.15e-01 1.24e-01h  1
 161 -2.5296389e-01 1.75e+01 8.96e+03  -6.0 2.25e+01  -4.9 1.26e-01 2.22e-01h  1
 162 -2.5279261e-01 1.36e+01 7.59e+03  -6.0 1.75e+01  -4.4 5.34e-01 2.27e-01h  1
 163 -2.5255193e-01 8.50e+00 4.74e+03  -6.0 1.36e+01  -4.9 9.65e-01 3.73e-01h  1
 164 -2.5235810e-01 2.86e+00 1.59e+03  -6.0 8.51e+00  -5.4 2.58e-01 6.64e-01h  1
 165 -2.5244789e-01 7.32e-03 3.95e-01  -6.0 6.06e+00  -5.9 1.00e+00 1.00e+00h  1
 166 -2.5288640e-01 1.70e-01 6.89e+00  -6.0 1.91e+01  -6.4 2.13e-01 5.95e-01h  1
 167 -2.5293605e-01 1.64e-01 1.98e+00  -6.0 3.89e+01  -6.8 1.80e-01 3.20e-02h  1
 168 -2.5298241e-01 1.63e-01 1.95e+00  -6.0 2.14e+02  -7.3 3.41e-02 2.69e-02h  1
 169 -2.5298333e-01 1.60e-01 1.83e+01  -6.0 2.58e+01  -7.8 1.00e+00 1.68e-02h  1
iter    objective    inf_pr   inf_du lg(mu)  ||d||  lg(rg) alpha_du alpha_pr  ls
 170 -2.5310015e-01 6.66e-02 3.61e+00  -6.0 6.38e+01  -8.3 9.42e-01 5.85e-01f  1
 171 -2.5317257e-01 1.30e+01 1.81e+01  -6.0 3.78e+02  -8.7 6.65e-02 3.71e-01f  1
 172 -2.5336152e-01 9.41e+00 9.06e+00  -6.0 5.27e+02  -9.2 5.66e-01 3.08e-01h  1
 173 -2.5349174e-01 8.23e-02 1.58e+00  -6.0 2.19e+01  -7.9 9.10e-01 1.00e+00h  1
 174 -2.5352107e-01 5.04e-02 2.48e+00  -6.0 6.43e+01  -8.4 4.41e-01 3.02e-01h  1
 175 -2.5375335e-01 2.82e-01 1.04e+00  -6.0 2.20e+02  -8.8 6.51e-01 1.00e+00h  1
 176 -2.5394968e-01 4.35e+00 5.22e+00  -6.0 6.02e+02  -9.3 1.00e+00 5.17e-01h  1
 177 -2.5407066e-01 3.42e+00 8.05e+00  -6.0 1.06e+03  -9.8 1.00e+00 2.19e-01h  1
 178 -2.5486731e-01 1.78e+01 5.29e+00  -6.0 1.66e+03 -10.3 3.89e-01 8.65e-01h  1
 179 -2.5497694e-01 1.70e+01 1.25e+01  -6.0 3.29e+04 -10.8 1.08e-01 5.96e-02h  1
iter    objective    inf_pr   inf_du lg(mu)  ||d||  lg(rg) alpha_du alpha_pr  ls
 180 -2.5523968e-01 4.35e+01 2.20e+01  -6.0 1.36e+04    -  1.67e-01 1.32e-01h  1
 181 -2.5527661e-01 4.03e+01 3.04e+02  -6.0 2.31e+03 -10.3 2.73e-01 7.27e-02h  1
 182 -2.5532061e-01 2.72e+01 1.58e+04  -6.0 1.36e+03  -9.9 1.00e-02 3.28e-01h  1
 183 -2.5534386e-01 6.94e+00 3.91e+03  -6.0 1.71e+02  -8.6 1.06e-01 7.45e-01h  1
 184 -2.5531165e-01 5.48e+00 3.09e+03  -6.0 3.60e+02  -9.0 2.81e-01 2.11e-01h  1
 185 -2.5536214e-01 3.37e+00 1.90e+03  -6.0 1.98e+02  -8.6 2.93e-01 3.84e-01h  1
 186 -2.5547578e-01 1.02e+00 1.77e+02  -6.0 2.66e+02  -9.1 4.64e-01 8.99e-01h  1
 187 -2.5548206e-01 1.01e+00 1.74e+02  -6.0 1.26e+03  -9.6 4.31e-02 2.79e-02h  1
 188 -2.5545997e-01 9.29e-01 1.50e+02  -6.0 3.47e+02  -9.1 7.93e-03 1.08e-01h  1
 189 -2.5550907e-01 6.95e-01 9.05e+01  -6.0 2.34e+02  -8.7 7.90e-02 3.04e-01h  1
iter    objective    inf_pr   inf_du lg(mu)  ||d||  lg(rg) alpha_du alpha_pr  ls
 190 -2.5549409e-01 6.76e-01 8.66e+01  -6.0 5.29e+02  -9.2 7.23e-04 3.65e-02h  2
 191 -2.5552875e-01 6.16e-01 7.75e+01  -6.0 5.46e+01  -7.0 5.39e-02 8.84e-02h  1
 192 -2.5547149e-01 5.04e-01 6.35e+01  -6.0 8.95e+01  -7.4 1.14e-02 1.99e-01h  1
 193 -2.5548069e-01 5.28e-01 6.33e+01  -6.0 5.80e+03  -7.9 2.88e-06 3.08e-03f  1
 194 -2.5547350e-01 5.33e-01 6.33e+01  -6.0 2.57e+05  -8.4 2.28e-10 5.06e-06f  2
 195 -2.5548156e-01 5.35e-01 6.18e+01  -6.0 1.21e+02  -7.1 4.54e-02 1.08e-02h  1
 196 -2.5588315e-01 1.50e+01 6.17e+01  -6.0 2.86e+01  -7.5 6.54e-02 1.00e+00f  1
 197 -2.5581982e-01 6.97e+00 3.10e+01  -6.0 1.54e+01  -6.2 4.90e-01 5.36e-01h  1
 198 -2.5604007e-01 1.33e+01 3.41e+01  -6.0 2.71e+02  -6.7 1.23e-01 7.50e-02h  1
 199 -2.5608993e-01 1.24e+01 1.21e+01  -6.0 2.83e+01  -7.2 1.00e+00 1.85e-01h  1
iter    objective    inf_pr   inf_du lg(mu)  ||d||  lg(rg) alpha_du alpha_pr  ls
 200 -2.5607015e-01 6.56e+00 6.35e+00  -6.0 7.41e+00  -7.6 1.00e+00 4.76e-01h  1
 201 -2.5605568e-01 2.47e-02 1.29e-01  -6.0 1.42e+01  -8.1 1.00e+00 1.00e+00h  1
 202 -2.5607810e-01 3.02e-02 3.94e-03  -6.0 4.20e+01  -8.6 1.00e+00 1.00e+00h  1
 203 -2.5612582e-01 2.34e-01 2.82e-02  -6.0 1.17e+02  -9.1 1.00e+00 1.00e+00h  1
 204 -2.5622906e-01 3.25e+00 1.54e-01  -6.0 4.02e+02  -9.6 1.00e+00 1.00e+00h  1
 205 -2.5627952e-01 5.64e-01 7.16e-02  -6.0 1.73e+02  -9.1 1.00e+00 1.00e+00h  1
 206 -2.5643054e-01 1.43e+01 5.33e+00  -6.0 8.55e+02  -9.6 6.17e-01 1.00e+00h  1
 207 -2.5651594e-01 1.40e+01 4.20e+00  -6.0 3.76e+03 -10.1 2.47e-01 7.96e-02h  1
 208 -2.5665035e-01 1.37e+01 6.90e+00  -6.0 5.78e+03 -10.6 1.62e-01 1.01e-01h  1
 209 -2.5698694e-01 1.24e+01 1.03e+01  -6.0 1.65e+04 -11.0 2.40e-01 1.50e-01h  1
iter    objective    inf_pr   inf_du lg(mu)  ||d||  lg(rg) alpha_du alpha_pr  ls
 210 -2.5754167e-01 1.49e+01 2.82e+01  -6.0 2.70e+04    -  2.56e-01 1.98e-01h  1
 211 -2.5772254e-01 1.35e+01 2.58e+01  -6.0 7.58e+03 -11.5 1.65e-01 1.03e-01h  1
 212 -2.5804848e-01 7.45e+00 2.10e+01  -6.0 3.93e+02  -9.3 9.80e-02 3.32e-01h  1
 213 -2.5824556e-01 4.89e+00 9.95e+00  -6.0 6.24e+02  -9.8 5.93e-01 4.97e-01h  1
 214 -2.5863003e-01 9.98e+00 1.14e+01  -6.0 3.88e+04    -  2.90e-02 6.20e-02h  1
 215 -2.5879605e-01 1.03e+01 2.46e+01  -6.0 1.72e+04    -  5.39e-04 1.02e-02h  1
 216 -2.5880447e-01 1.01e+01 2.92e+01  -6.0 6.41e+03    -  1.08e-01 2.04e-02h  1
 217 -2.5893280e-01 9.87e+00 3.53e+01  -6.0 6.63e+03    -  2.87e-05 4.82e-02f  1
 218 -2.5916010e-01 9.82e+00 3.78e+01  -6.0 5.40e+03    -  3.82e-02 1.04e-01h  1
 219 -2.5935496e-01 9.32e+00 3.77e+01  -6.0 3.96e+03    -  9.24e-02 1.45e-01h  1
iter    objective    inf_pr   inf_du lg(mu)  ||d||  lg(rg) alpha_du alpha_pr  ls
 220 -2.5951319e-01 9.76e+00 2.86e+01  -6.0 2.58e+03    -  1.75e-01 1.24e-01h  1
 221 -2.5962087e-01 9.23e+00 1.88e+01  -6.0 1.90e+03    -  2.31e-01 1.29e-01h  1
 222 -2.5965956e-01 8.58e+00 5.81e+01  -6.0 1.13e+03    -  3.18e-01 7.10e-02h  1
 223 -2.5989362e-01 7.06e+00 1.60e+01  -6.0 1.33e+03    -  8.68e-02 4.33e-01h  1
 224 -2.5993829e-01 9.86e+00 9.02e+00  -6.0 5.56e+03    -  9.91e-02 8.00e-02h  1
 225 -2.6002626e-01 9.48e+00 1.23e+01  -6.0 1.46e+03 -10.2 1.94e-01 2.13e-01h  1
 226 -2.6004529e-01 8.96e+00 7.78e+00  -6.0 1.19e+02  -8.0 7.22e-02 5.46e-02h  1
 227 -2.6008194e-01 7.79e+00 6.52e+01  -6.0 2.56e+02  -8.5 2.76e-01 1.31e-01h  1
 228 -2.6008299e-01 7.77e+00 1.42e+02  -6.0 1.24e+02  -7.2 1.38e-01 2.32e-03h  1
 229 -2.6008089e-01 7.76e+00 1.45e+02  -6.0 8.92e+03  -7.6 4.10e-03 9.41e-04h  2
iter    objective    inf_pr   inf_du lg(mu)  ||d||  lg(rg) alpha_du alpha_pr  ls
 230 -2.6015956e-01 4.58e+00 1.58e+02  -6.0 2.25e+02  -8.1 5.95e-01 4.10e-01h  1
 231 -2.6021196e-01 2.53e+00 1.16e+02  -6.0 2.07e+02  -8.6 4.95e-01 4.50e-01h  1
 232 -2.6022425e-01 2.31e+00 9.84e+01  -6.0 1.48e+03  -9.1 8.43e-02 9.09e-02h  2
 233 -2.6025307e-01 2.12e+00 1.12e+02  -6.0 8.71e+02  -9.5 2.01e-01 3.02e-01H  1
 234 -2.6030938e-01 3.70e+00 6.38e+02  -6.0 2.35e+02  -9.1 2.60e-01 4.72e-01h  1
 235 -2.6031838e-01 3.60e+00 5.87e+02  -6.0 2.32e+02  -8.7 3.17e-02 2.53e-02h  1
 236 -2.6032597e-01 3.22e+00 8.21e+02  -6.0 2.76e+01  -5.6 2.58e-02 1.09e-01f  1
 237 -2.6035617e-01 2.69e+00 7.13e+02  -6.0 5.83e+00  -6.0 1.12e-01 1.61e-01h  1
 238 -2.6036327e-01 2.58e+00 2.27e+03  -6.0 1.76e+01  -6.5 5.86e-01 4.11e-02h  1
 239 -2.6049982e-01 3.11e-01 2.93e+03  -6.0 1.35e+01  -7.0 8.92e-01 7.81e-01h  1
iter    objective    inf_pr   inf_du lg(mu)  ||d||  lg(rg) alpha_du alpha_pr  ls
 240 -2.6053012e-01 2.69e-01 2.45e+03  -6.0 3.18e+01  -7.5 1.90e-01 1.46e-01h  1
 241 -2.6053102e-01 2.02e+00 1.65e+06  -6.0 4.01e+01  -7.9 6.16e-03 1.00e+00f  1
 242 -2.6053519e-01 2.02e+00 1.65e+06  -6.0 6.47e+04    -  2.62e-02 3.44e-03h  1
 243 -2.6055189e-01 1.40e+01 1.41e+06  -6.0 6.03e+03    -  4.77e-02 1.46e-01h  1
 244 -2.6051795e-01 5.54e+00 5.49e+05  -6.0 2.21e+02  -8.4 4.52e-02 6.09e-01h  1
 245 -2.6057715e-01 1.41e+00 1.74e+03  -6.0 1.62e+02  -8.9 7.45e-01 1.00e+00h  1
 246 -2.6063294e-01 3.47e+00 3.12e+03  -6.0 2.46e+02  -9.4 3.89e-01 1.00e+00h  1
 247 -2.6056055e-01 3.51e+00 1.55e+03  -6.0 4.45e+02  -9.8 5.72e-01 1.00e+00h  1
 248 -2.6050287e-01 6.48e-01 1.79e+02  -6.0 1.55e+02  -9.4 1.00e+00 1.00e+00h  1
 249 -2.6049774e-01 1.09e+00 4.88e+01  -6.0 4.80e+02  -9.9 1.00e+00 4.70e-01h  1
iter    objective    inf_pr   inf_du lg(mu)  ||d||  lg(rg) alpha_du alpha_pr  ls
 250 -2.6047851e-01 4.65e+00 3.46e+00  -6.0 5.70e+02 -10.4 1.00e+00 9.07e-01h  1
 251 -2.6044855e-01 3.73e+00 8.78e+00  -6.0 5.73e+02    -  1.00e+00 5.59e-01h  1
 252 -2.6043723e-01 2.24e+00 1.56e+01  -6.0 6.43e+02    -  1.00e+00 5.12e-01h  1
 253 -2.6042321e-01 3.14e-01 5.95e-02  -6.0 1.39e+02    -  1.00e+00 1.00e+00h  1
 254 -2.6042346e-01 5.04e-03 2.53e-03  -6.0 1.70e+01    -  1.00e+00 1.00e+00h  1
 255 -2.6042346e-01 9.07e-08 3.68e-08  -6.0 6.85e-02    -  1.00e+00 1.00e+00h  1
 256 -2.6098064e-01 2.13e+00 1.87e+01  -7.5 2.23e+03    -  2.98e-01 2.32e-01f  1
 257 -2.6103220e-01 2.11e+00 1.91e+01  -7.5 3.88e+03    -  3.37e-02 2.90e-02h  1
 258 -2.6111713e-01 2.05e+00 3.29e+01  -7.5 1.04e+03 -10.0 1.34e-01 5.77e-02h  1
 259 -2.6116804e-01 1.99e+00 9.92e+01  -7.5 4.72e+02  -9.5 4.54e-01 4.86e-02h  1
iter    objective    inf_pr   inf_du lg(mu)  ||d||  lg(rg) alpha_du alpha_pr  ls
 260 -2.6165276e-01 5.66e+00 6.14e+01  -7.5 3.04e+03    -  1.50e-02 3.47e-01h  1
 261 -2.6173080e-01 5.19e+00 5.92e+01  -7.5 1.73e+03    -  1.71e-01 1.09e-01h  1
 262 -2.6196559e-01 4.65e+00 6.26e+01  -7.5 1.71e+03    -  5.44e-01 3.51e-01h  1
 263 -2.6203536e-01 3.83e+00 7.71e+01  -7.5 2.86e+02 -10.0 5.16e-01 1.79e-01h  1
 264 -2.6228893e-01 4.23e+00 5.85e+01  -7.5 1.72e+03    -  7.99e-02 6.68e-01h  1
 265 -2.6230915e-01 3.54e+00 1.08e+02  -7.5 8.23e+02    -  4.85e-01 1.67e-01h  1
 266 -2.6238988e-01 7.57e-01 9.82e+01  -7.5 2.90e+02 -10.5 1.00e+00 8.07e-01h  1
 267 -2.6242666e-01 4.45e-01 1.94e+02  -7.5 2.07e+01  -7.3 1.67e-01 4.12e-01h  1
 268 -2.6247444e-01 2.65e+00 7.56e+02  -7.5 9.43e+02    -  2.22e-01 5.06e-01h  1
 269 -2.6249211e-01 2.23e+00 2.13e+02  -7.5 4.09e+01  -7.8 3.53e-01 1.58e-01h  1
iter    objective    inf_pr   inf_du lg(mu)  ||d||  lg(rg) alpha_du alpha_pr  ls
 270 -2.6251700e-01 1.47e+00 2.56e+03  -7.5 1.08e+01  -8.3 9.52e-01 3.43e-01h  1
 271 -2.6253812e-01 8.24e-01 1.29e+07  -7.5 9.59e+01  -8.8 4.66e-04 8.69e-01h  1
 272 -2.6282205e-01 3.69e-01 5.96e+06  -7.5 1.82e+02  -9.3 7.25e-01 5.36e-01h  1
 273 -2.6280651e-01 3.46e-01 5.58e+06  -7.5 6.13e+01  -6.1 7.83e-06 6.30e-02h  1
 274 -2.6266591e-01 2.18e-01 3.50e+06  -7.5 1.85e+01  -5.7 3.30e-01 3.72e-01h  1
 275 -2.6266505e-01 2.17e-01 3.49e+06  -7.5 1.20e+01  -6.2 4.41e-01 3.76e-03h  1
 276 -2.6253355e-01 8.43e-02 1.34e+06  -7.5 1.19e+01  -6.6 7.51e-01 6.15e-01h  1
 277 -2.6250134e-01 5.67e-02 1.03e+02  -7.5 1.11e+01  -7.1 1.00e+00 1.00e+00h  1
 278 -2.6252964e-01 5.55e-02 1.66e-02  -7.5 9.55e+00  -7.6 1.00e+00 1.00e+00h  1
 279 -2.6252172e-01 7.82e-03 1.08e-02  -7.5 7.16e+00  -8.1 1.00e+00 1.00e+00h  1
iter    objective    inf_pr   inf_du lg(mu)  ||d||  lg(rg) alpha_du alpha_pr  ls
 280 -2.6252055e-01 7.26e-03 1.64e-03  -7.5 6.76e+00  -8.6 1.00e+00 1.00e+00h  1
 281 -2.6252055e-01 5.96e-03 3.53e-04  -7.5 9.82e+00  -9.0 1.00e+00 1.00e+00h  1
 282 -2.6252117e-01 6.57e-04 1.38e-03  -7.5 2.79e+01  -9.5 1.00e+00 1.00e+00H  1
 283 -2.6252293e-01 6.03e-04 4.16e-03  -7.5 7.25e+01 -10.0 1.00e+00 1.00e+00H  1
 284 -2.6252578e-01 6.75e-03 1.36e-02  -7.5 1.50e+02 -10.5 1.00e+00 1.00e+00H  1
 285 -2.6252839e-01 3.46e-03 2.27e-02  -7.5 1.97e+02 -10.9 1.00e+00 1.00e+00H  1
 286 -2.6252957e-01 5.11e-02 9.35e-03  -7.5 1.53e+02 -11.4 1.00e+00 1.00e+00H  1
 287 -2.6253024e-01 6.11e+00 7.61e-03  -7.5 7.19e+02 -11.9 1.00e+00 1.00e+00h  1
 288 -2.6253071e-01 1.12e+01 2.41e-01  -7.5 4.41e+03    -  4.09e-02 1.60e-01h  3
 289 -2.6253264e-01 1.19e+01 3.98e-01  -7.5 1.79e+03 -12.4 7.48e-01 1.00e+00H  1
iter    objective    inf_pr   inf_du lg(mu)  ||d||  lg(rg) alpha_du alpha_pr  ls
 290 -2.6253179e-01 1.10e+02 2.55e+00  -7.5 5.61e+03 -12.8 1.84e-02 1.00e+00H  1
 291 -2.6253238e-01 3.57e+01 1.18e+00  -7.5 3.25e+03    -  8.24e-01 4.47e-01h  2
 292 -2.6253338e-01 3.83e+01 9.40e-02  -7.5 1.73e+03    -  1.00e+00 1.00e+00h  1
 293 -2.6253466e-01 2.10e+01 1.81e+00  -7.5 3.67e+03    -  2.63e-02 1.00e+00H  1
 294 -2.6253449e-01 1.63e-04 1.65e-04  -7.5 1.97e+01 -10.6 1.00e+00 1.00e+00h  1
 295 -2.6253586e-01 4.20e+00 4.88e-01  -7.5 1.43e+03    -  6.73e-01 1.00e+00H  1
 296 -2.6253544e-01 4.31e+00 5.41e-02  -7.5 5.16e+02    -  1.00e+00 1.00e+00h  1
 297 -2.6253542e-01 8.84e-03 2.01e-04  -7.5 2.78e+01    -  1.00e+00 1.00e+00h  1
 298 -2.6253541e-01 5.23e-04 2.33e-06  -7.5 5.72e+00    -  1.00e+00 1.00e+00h  1
 299 -2.6253541e-01 2.83e-10 3.39e-12  -7.5 3.01e-03    -  1.00e+00 1.00e+00h  1
iter    objective    inf_pr   inf_du lg(mu)  ||d||  lg(rg) alpha_du alpha_pr  ls
 300 -2.6253690e-01 6.46e-01 3.67e+00  -9.0 1.73e+03    -  5.16e-01 1.16e-01h  1
 301 -2.6253930e-01 3.64e+01 3.00e+00  -9.0 7.05e+03    -  2.36e-01 2.12e-01h  1
 302 -2.6254094e-01 4.84e+01 1.82e+00  -9.0 3.47e+03    -  2.95e-01 3.40e-01h  1
 303 -2.6254257e-01 3.89e+01 7.29e+01  -9.0 1.55e+03    -  4.53e-02 7.81e-01h  1
 304 -2.6254266e-01 3.83e+01 7.26e+01  -9.0 5.47e+03    -  1.69e-02 3.68e-02h  1
 305 -2.6254268e-01 3.72e+01 5.03e+01  -9.0 1.67e+03    -  3.85e-01 2.84e-02h  1
 306 -2.6254301e-01 3.09e+01 6.86e+03  -9.0 1.61e+03    -  1.72e-03 4.16e-01h  1
 307 -2.6254362e-01 3.87e+01 1.26e+03  -9.0 1.53e+03    -  1.59e-02 8.16e-01h  1
 308 -2.6254368e-01 2.87e+01 7.80e+02  -9.0 1.55e+03    -  1.37e-01 3.81e-01h  1
 309 -2.6254386e-01 2.66e+01 5.65e+02  -9.0 1.81e+03    -  4.25e-01 2.76e-01h  1
iter    objective    inf_pr   inf_du lg(mu)  ||d||  lg(rg) alpha_du alpha_pr  ls
 310 -2.6254402e-01 2.22e+01 4.02e+02  -9.0 1.26e+03    -  4.90e-02 2.89e-01h  1
 311 -2.6254403e-01 2.02e+01 3.66e+02  -9.0 5.59e+02    -  3.64e-02 8.98e-02h  1
 312 -2.6254406e-01 1.63e+01 2.95e+02  -9.0 5.36e+02    -  2.20e-01 1.94e-01h  1
 313 -2.6254407e-01 1.48e+01 2.67e+02  -9.0 5.98e+02    -  4.72e-02 9.46e-02h  1
 314 -2.6254419e-01 4.13e-01 2.25e+00  -9.0 1.75e+02    -  1.03e-01 1.00e+00h  1
 315 -2.6254421e-01 2.96e+00 2.90e-01  -9.0 3.72e+02    -  7.36e-01 1.00e+00h  1
 316 -2.6254421e-01 1.60e-01 1.98e-01  -9.0 6.60e+01    -  3.18e-01 1.00e+00h  1
 317 -2.6254421e-01 1.83e-02 2.51e-07  -9.0 1.73e+01 -11.1 1.00e+00 1.00e+00h  1
 318 -2.6254449e-01 6.11e+01 2.55e-02  -9.0 4.58e+03    -  4.40e-02 4.97e-01h  1
 319 -2.6254438e-01 5.25e+01 3.29e-02  -9.0 2.90e+03    -  6.57e-01 2.35e-01h  3
iter    objective    inf_pr   inf_du lg(mu)  ||d||  lg(rg) alpha_du alpha_pr  ls
 320 -2.6254446e-01 3.21e-01 4.10e-02  -9.0 1.08e+02 -11.6 2.76e-01 1.00e+00h  1
 321 -2.6254469e-01 2.37e+01 1.24e-02  -9.0 1.01e+04    -  2.23e-01 1.35e-01h  2
 322 -2.6254477e-01 7.47e-01 3.42e-04  -9.0 2.14e+02 -12.0 1.00e+00 1.00e+00h  1
 323 -2.6254493e-01 7.01e+00 6.14e-04  -9.0 7.24e+02 -12.5 1.00e+00 1.00e+00h  1
 324 -2.6254551e-01 7.95e+01 8.47e-03  -9.0 2.98e+03 -13.0 7.06e-01 8.03e-01h  1
 325 -2.6254527e-01 1.46e+01 3.26e-01  -9.0 1.06e+03    -  3.03e-01 1.00e+00h  1
 326 -2.6254556e-01 1.70e+01 6.45e-02  -9.0 9.89e+02    -  2.25e-01 1.00e+00h  1
 327 -2.6254613e-01 6.51e+01 4.87e-02  -9.0 1.93e+04    -  7.41e-03 9.67e-02h  1
 328 -2.6254672e-01 5.45e+01 4.53e-01  -9.0 1.77e+03    -  4.20e-01 1.00e+00h  1
 329 -2.6254687e-01 4.38e+01 2.35e-01  -9.0 1.82e+03    -  3.66e-01 2.97e-01h  1
iter    objective    inf_pr   inf_du lg(mu)  ||d||  lg(rg) alpha_du alpha_pr  ls
 330 -2.6254735e-01 3.63e+01 1.74e+00  -9.0 1.64e+03    -  2.58e-02 9.14e-01H  1
 331 -2.6254741e-01 4.34e+00 3.33e+01  -9.0 4.26e+02    -  1.65e-03 1.00e+00h  1
 332 -2.6254741e-01 4.33e+00 3.31e+01  -9.0 5.37e+03    -  2.52e-01 4.27e-03h  7
 333 -2.6254742e-01 4.33e+00 3.29e+01  -9.0 9.34e+03    -  2.59e-01 1.22e-03h  8
 334 -2.6254744e-01 4.33e+00 2.88e+01  -9.0 1.28e+03    -  1.00e+00 1.25e-01h  4
 335 -2.6254747e-01 4.13e+00 2.53e+01  -9.0 1.02e+03    -  1.00e+00 1.25e-01h  4
 336 -2.6254749e-01 4.11e+00 2.21e+01  -9.0 1.21e+03    -  1.00e+00 1.25e-01h  4
 337 -2.6254751e-01 3.91e+00 1.94e+01  -9.0 9.65e+02    -  1.00e+00 1.25e-01h  4
 338 -2.6254753e-01 3.76e+00 1.70e+01  -9.0 1.00e+03    -  1.00e+00 1.25e-01h  4
 339 -2.6254755e-01 3.57e+00 1.49e+01  -9.0 8.94e+02    -  1.00e+00 1.25e-01h  4
iter    objective    inf_pr   inf_du lg(mu)  ||d||  lg(rg) alpha_du alpha_pr  ls
 340 -2.6254757e-01 3.38e+00 1.30e+01  -9.0 8.55e+02    -  1.00e+00 1.25e-01h  4
 341 -2.6254758e-01 3.17e+00 1.14e+01  -9.0 7.94e+02    -  1.00e+00 1.25e-01h  4
 342 -2.6254770e-01 1.23e+01 1.19e-03  -9.0 7.42e+02    -  1.00e+00 1.00e+00w  1
 343 -2.6254773e-01 1.86e+00 3.52e-04  -9.0 2.70e+02    -  1.00e+00 1.00e+00h  1
 344 -2.6254772e-01 8.78e-03 4.15e-06  -9.0 2.11e+01    -  1.00e+00 1.00e+00h  1
 345 -2.6254772e-01 2.34e-04 2.71e-08  -9.0 3.13e+00    -  1.00e+00 1.00e+00h  1
 346 -2.6254772e-01 1.27e-08 1.94e-12  -9.0 2.29e-02    -  1.00e+00 1.00e+00h  1

Number of Iterations....: 346

                                   (scaled)                 (unscaled)
Objective...............:  -2.6254772447204328e-01   -2.6254772447204328e-01
Dual infeasibility......:   1.9440083119849025e-12    1.9440083119849025e-12
Constraint violation....:   6.8065777553924247e-09    1.2685632100328803e-08
Complementarity.........:   9.0909091693344675e-10    9.0909091693344675e-10
Overall NLP error.......:   6.8065777553924247e-09    1.2685632100328803e-08


Number of objective function evaluations             = 691
Number of objective gradient evaluations             = 347
Number of equality constraint evaluations            = 691
Number of inequality constraint evaluations          = 692
Number of equality constraint Jacobian evaluations   = 347
Number of inequality constraint Jacobian evaluations = 347
Number of Lagrangian Hessian evaluations             = 346
Total CPU secs in IPOPT (w/o function evaluations)   =    818.189
Total CPU secs in NLP function evaluations           =     13.407

EXIT: Optimal Solution Found.
